21 75 86 50 97 41 66 17 25 33 60 54 48 98 89 73 29 96 28 73 63 64 40 20 76 
70 33 56 16 80 84 94 26 67 73 43 93 34 40 46 57 67 67 10 69 69 37 68 34 72 
92 31 96 73 91 58 99 51 57 13 37 54 44 86 62 53 33 14 73 36 23 85 27 48 44 
81 16 90 56 10 81 25 27 76 56 18 26 29 58 82 68 54 41 72 26 86 79 30 89 67 
59 90 84 17 24 45 76 94 31 45 48 78 29 98 76 98 65 33 10 73 24 14 43 31 65 
675.00
